
Gurobi 12.0.2 (win64) logging started Fri Jun  6 10:10:14 2025

Set parameter LogFile to value "C:\Ioana\_uni\honours\slp\algorithm\Main_files\results\others\prox_tubules_new\Task_010_Sample005_irr_gurobi.log"
Gurobi Optimizer version 12.0.2 build v12.0.2rc0 (win64 - Windows 11.0 (26100.2))

CPU model: Intel(R) Core(TM) Ultra 5 125H, instruction set [SSE2|AVX|AVX2]
Thread count: 14 physical cores, 18 logical processors, using up to 18 threads

Non-default parameters:
TimeLimit  2200

Optimize a model with 47658 rows, 34794 columns and 147841 nonzeros
Model fingerprint: 0x6b4dae70
Variable types: 17400 continuous, 17394 integer (17394 binary)
Coefficient statistics:
  Matrix range     [1e-04, 8e+04]
  Objective range  [5e-05, 3e+00]
  Bounds range     [1e+00, 1e+03]
  RHS range        [1e+00, 1e+00]
Presolve removed 31205 rows and 21835 columns
Presolve time: 0.31s
Presolved: 16453 rows, 12959 columns, 54680 nonzeros
Variable types: 6413 continuous, 6546 integer (6546 binary)

Root relaxation: objective 1.813782e-03, 2484 iterations, 0.14 seconds (0.28 work units)

    Nodes    |    Current Node    |     Objective Bounds      |     Work
 Expl Unexpl |  Obj  Depth IntInf | Incumbent    BestBd   Gap | It/Node Time

     0     0    0.00181    0    4          -    0.00181      -     -    0s
H    0     0                       1.8137817    0.00181   100%     -    0s
H    0     0                       1.8137817    0.00182   100%     -    0s
     0     0    0.93128    0    4    1.81378    0.93128  48.7%     -    0s
     0     0    0.93130    0    4    1.81378    0.93130  48.7%     -    0s
     0     0    0.93747    0    1    1.81378    0.93747  48.3%     -    0s
     0     0    0.94412    0    5    1.81378    0.94412  47.9%     -    0s

Explored 1 nodes (4094 simplex iterations) in 1.02 seconds (1.22 work units)
Thread count was 18 (of 18 available processors)

Solution count 1: 1.81378 

Optimal solution found (tolerance 1.00e-04)
Best objective 1.813781661493e+00, best bound 1.813781661493e+00, gap 0.0000%
